letting n =  10
letting blocks =  [[1, 1], [1, 4], [1, 5], [1, 6], [1, 8], [1, 10], [2, 3], [2, 5], [2, 6], [2, 9], [2, 10], [3, 1], [3, 8], [3, 9], [4, 1], [4, 3], [4, 6], [4, 9], [5, 1], [5, 4], [5, 5], [5, 9], [5, 10], [6, 3], [6, 5], [6, 8], [7, 5], [7, 6], [7, 8], [7, 9], [7, 10], [8, 2], [8, 5], [8, 7], [8, 8], [9, 1], [9, 8], [9, 10], [10, 2], [10, 3], [10, 6], [10, 7], [10, 9], [10, 10]]
